solution status: time limit reached
objective value:                                  150
shell_i_$_147                                       1 	(obj:0)
shell_i_$_86                                        1 	(obj:0)
shell_i_$_200                                       1 	(obj:0)
shell_j_$_202                                       1 	(obj:0)
shell_i_$_237                                       1 	(obj:0)
shell_j_$_237                                       1 	(obj:0)
shell_j_$_245                                       1 	(obj:0)
shell_j_$_205                                       1 	(obj:0)
shell_j_$_172                                       1 	(obj:0)
shell_i_$_161                                       1 	(obj:0)
shell_j_$_241                                       1 	(obj:0)
shell_j_$_79                                        1 	(obj:0)
shell_j_$_198                                       1 	(obj:0)
shell_j_$_229                                       1 	(obj:0)
shell_i_$_162                                       1 	(obj:0)
shell_j_$_162                                       1 	(obj:0)
shell_j_$_87                                        1 	(obj:0)
shell_j_$_243                                       1 	(obj:0)
shell_i_$_85                                        1 	(obj:0)
shell_i_$_277                                       1 	(obj:0)
shell_j_$_78                                        1 	(obj:0)
shell_i_$_157                                       1 	(obj:0)
shell_i_$_163                                       1 	(obj:0)
shell_i_$_197                                       1 	(obj:0)
shell_i_$_96                                        1 	(obj:0)
shell_i_$_155                                       1 	(obj:0)
shell_i_$_154                                       1 	(obj:0)
shell_i_$_244                                       1 	(obj:0)
shell_i_$_97                                        1 	(obj:0)
shell_j_$_97                                        1 	(obj:0)
shell_j_$_213                                       1 	(obj:0)
shell_j_$_236                                       1 	(obj:0)
shell_i_$_82                                        1 	(obj:0)
shell_j_$_75                                        1 	(obj:0)
shell_j_$_203                                       1 	(obj:0)
shell_i_$_204                                       1 	(obj:0)
shell_j_$_204                                       1 	(obj:0)
shell_i_$_238                                       1 	(obj:0)
shell_i_$_83                                        1 	(obj:0)
shell_j_$_74                                        1 	(obj:0)
shell_i_$_80                                        1 	(obj:0)
shell_j_$_279                                       1 	(obj:0)
shell_i_$_278                                       1 	(obj:0)
shell_j_$_159                                       1 	(obj:0)
shell_i_$_254                                       1 	(obj:0)
shell_i_$_81                                        1 	(obj:0)
shell_i_$_84                                        1 	(obj:0)
shell_i_$_246                                       1 	(obj:0)
shell_j_$_196                                       1 	(obj:0)
shell_i_$_270                                       1 	(obj:0)
shell_j_$_188                                       1 	(obj:0)
shell_i_$_195                                       1 	(obj:0)
shell_j_$_156                                       1 	(obj:0)
shell_i_$_164                                       1 	(obj:0)
shell_j_$_164                                       1 	(obj:0)
shell_i_$_239                                       1 	(obj:0)
$_163_z                                            25 	(obj:0)
$_161_x                                            12 	(obj:0)
$_161_y                                            12 	(obj:0)
$_197_x                                            12 	(obj:0)
$_197_y                                            10 	(obj:0)
$_197_z                                            21 	(obj:0)
$_161_z                                            19 	(obj:0)
$_202_y                                            12 	(obj:0)
$_96_x                                             12 	(obj:0)
$_96_y                                              9 	(obj:0)
$_96_z                                             21 	(obj:0)
$_202_z                                            17 	(obj:0)
$_241_x                                             8 	(obj:0)
$_155_x                                            12 	(obj:0)
$_155_y                                             9 	(obj:0)
$_155_z                                            18 	(obj:0)
$_241_y                                            12 	(obj:0)
$_241_z                                            19 	(obj:0)
$_154_x                                            12 	(obj:0)
$_154_y                                             8 	(obj:0)
$_154_z                                            21 	(obj:0)
$_86_y                                              7 	(obj:0)
$_86_z                                             21 	(obj:0)
$_244_x                                            12 	(obj:0)
$_244_y                                             9 	(obj:0)
$_244_z                                            19 	(obj:0)
$_79_x                                              9 	(obj:0)
$_79_y                                             12 	(obj:0)
$_97_x                                             12 	(obj:0)
$_97_y                                             12 	(obj:0)
$_97_z                                             16 	(obj:0)
$_79_z                                             22 	(obj:0)
$_237_x                                            12 	(obj:0)
$_213_x                                             8 	(obj:0)
$_213_y                                            12 	(obj:0)
$_213_z                                            24 	(obj:0)
$_237_y                                            12 	(obj:0)
$_198_x                                            11 	(obj:0)
$_236_x                                            12 	(obj:0)
$_236_y                                            12 	(obj:0)
$_236_z                                            24 	(obj:0)
$_198_y                                            12 	(obj:0)
$_198_z                                            21 	(obj:0)
$_82_x                                             12 	(obj:0)
$_82_y                                              8 	(obj:0)
$_82_z                                             25 	(obj:0)
$_237_z                                            22 	(obj:0)
$_147_z                                            20 	(obj:0)
$_75_x                                             11 	(obj:0)
$_75_y                                             12 	(obj:0)
$_75_z                                             19 	(obj:0)
$_229_x                                            12 	(obj:0)
$_229_y                                            12 	(obj:0)
$_203_x                                            11 	(obj:0)
$_203_y                                            12 	(obj:0)
$_203_z                                            23 	(obj:0)
$_229_z                                            23 	(obj:0)
$_147_x                                            12 	(obj:0)
$_204_x                                            12 	(obj:0)
$_204_y                                            12 	(obj:0)
$_204_z                                            25 	(obj:0)
$_245_x                                            10 	(obj:0)
$_162_x                                            12 	(obj:0)
$_238_x                                            12 	(obj:0)
$_238_y                                             6 	(obj:0)
$_238_z                                            23 	(obj:0)
$_162_y                                            12 	(obj:0)
$_162_z                                            21 	(obj:0)
$_83_x                                             12 	(obj:0)
$_83_y                                             10 	(obj:0)
$_83_z                                             25 	(obj:0)
$_245_y                                            12 	(obj:0)
$_245_z                                            24 	(obj:0)
$_74_x                                              8 	(obj:0)
$_74_y                                             12 	(obj:0)
$_74_z                                             23 	(obj:0)
$_87_x                                              9 	(obj:0)
$_87_y                                             12 	(obj:0)
$_80_x                                             12 	(obj:0)
$_80_y                                              7 	(obj:0)
$_80_z                                             23 	(obj:0)
$_87_z                                             24 	(obj:0)
$_200_x                                            12 	(obj:0)
$_279_x                                             8 	(obj:0)
$_279_y                                            12 	(obj:0)
$_279_z                                            15 	(obj:0)
$_200_y                                            10 	(obj:0)
$_243_x                                             7 	(obj:0)
$_278_x                                            12 	(obj:0)
$_278_y                                             8 	(obj:0)
$_278_z                                            22 	(obj:0)
$_243_y                                            12 	(obj:0)
$_243_z                                            16 	(obj:0)
$_159_x                                            10 	(obj:0)
$_159_y                                            12 	(obj:0)
$_159_z                                            22 	(obj:0)
$_205_x                                            10 	(obj:0)
$_205_y                                            12 	(obj:0)
$_254_x                                            12 	(obj:0)
$_254_y                                            10 	(obj:0)
$_254_z                                            23 	(obj:0)
$_85_x                                             12 	(obj:0)
$_85_y                                              9 	(obj:0)
$_81_x                                             12 	(obj:0)
$_81_y                                             10 	(obj:0)
$_81_z                                             18 	(obj:0)
$_85_z                                             23 	(obj:0)
$_205_z                                            21 	(obj:0)
$_84_x                                             12 	(obj:0)
$_84_y                                              8 	(obj:0)
$_84_z                                             23 	(obj:0)
$_200_z                                            19 	(obj:0)
$_277_x                                            12 	(obj:0)
$_246_x                                            12 	(obj:0)
$_246_y                                            10 	(obj:0)
$_246_z                                            22 	(obj:0)
$_277_y                                            11 	(obj:0)
$_277_z                                            23 	(obj:0)
$_196_x                                            11 	(obj:0)
$_196_y                                            12 	(obj:0)
$_196_z                                            22 	(obj:0)
$_147_y                                            10 	(obj:0)
$_172_x                                            10 	(obj:0)
$_270_x                                            12 	(obj:0)
$_270_y                                            11 	(obj:0)
$_270_z                                            19 	(obj:0)
$_78_x                                              8 	(obj:0)
$_78_y                                             12 	(obj:0)
$_188_x                                             9 	(obj:0)
$_188_y                                            12 	(obj:0)
$_188_z                                            23 	(obj:0)
$_78_z                                             16 	(obj:0)
$_172_y                                            12 	(obj:0)
$_195_x                                            12 	(obj:0)
$_195_y                                            11 	(obj:0)
$_195_z                                            24 	(obj:0)
$_172_z                                            20 	(obj:0)
$_157_x                                            12 	(obj:0)
$_156_x                                            10 	(obj:0)
$_156_y                                            12 	(obj:0)
$_156_z                                            23 	(obj:0)
$_157_y                                             9 	(obj:0)
$_157_z                                            24 	(obj:0)
$_164_x                                            12 	(obj:0)
$_164_y                                            12 	(obj:0)
$_164_z                                            20 	(obj:0)
$_86_x                                             12 	(obj:0)
$_202_x                                            11 	(obj:0)
$_239_x                                            12 	(obj:0)
$_239_y                                            10 	(obj:0)
$_239_z                                            24 	(obj:0)
$_163_x                                            12 	(obj:0)
$_163_y                                            11 	(obj:0)
x260                                                1 	(obj:1)
x265                                                1 	(obj:1)
x266                                                1 	(obj:1)
x268                                                1 	(obj:1)
x270                                                1 	(obj:1)
x273                                                2 	(obj:1)
x274                                                2 	(obj:1)
x276                                                1 	(obj:1)
x277                                                1 	(obj:1)
x280                                                2 	(obj:1)
x281                                                2 	(obj:1)
x282                                                1 	(obj:1)
x283                                                2 	(obj:1)
x284                                                2 	(obj:1)
x285                                                1 	(obj:1)
x288                                                1 	(obj:1)
x289                                                2 	(obj:1)
x294                                                3 	(obj:1)
x297                                                1 	(obj:1)
x299                                                1 	(obj:1)
x304                                                3 	(obj:1)
x310                                                1 	(obj:1)
x312                                                1 	(obj:1)
x313                                                1 	(obj:1)
x314                                                2 	(obj:1)
x315                                                1 	(obj:1)
x320                                                1 	(obj:1)
x324                                                2 	(obj:1)
x328                                                1 	(obj:1)
x330                                                2 	(obj:1)
x341                                                1 	(obj:1)
x352                                                2 	(obj:1)
x353                                                3 	(obj:1)
x356                                                1 	(obj:1)
x357                                                1 	(obj:1)
x359                                                1 	(obj:1)
x360                                                1 	(obj:1)
x361                                                1 	(obj:1)
x362                                                2 	(obj:1)
x375                                                1 	(obj:1)
x378                                                2 	(obj:1)
x379                                                2 	(obj:1)
x380                                                4 	(obj:1)
x382                                                2 	(obj:1)
x383                                                3 	(obj:1)
x384                                                4 	(obj:1)
x386                                                3 	(obj:1)
x387                                                3 	(obj:1)
x390                                                4 	(obj:1)
x391                                                1 	(obj:1)
x394                                                3 	(obj:1)
x401                                                1 	(obj:1)
x402                                                1 	(obj:1)
x406                                                1 	(obj:1)
x407                                                2 	(obj:1)
x409                                                1 	(obj:1)
x412                                                1 	(obj:1)
x417                                                1 	(obj:1)
x422                                                3 	(obj:1)
x423                                                1 	(obj:1)
x430                                                4 	(obj:1)
x431                                                1 	(obj:1)
x434                                                5 	(obj:1)
x441                                                1 	(obj:1)
x448                                                2 	(obj:1)
x452                                                2 	(obj:1)
x456                                                2 	(obj:1)
x459                                                1 	(obj:1)
x463                                                1 	(obj:1)
x464                                                2 	(obj:1)
x469                                                1 	(obj:1)
x472                                                1 	(obj:1)
x474                                                1 	(obj:1)
x476                                                1 	(obj:1)
x481                                                2 	(obj:1)
x482                                                1 	(obj:1)
x483                                                2 	(obj:1)
x485                                                1 	(obj:1)
x487                                                2 	(obj:1)
x488                                                1 	(obj:1)
x492                                                2 	(obj:1)
x493                                                2 	(obj:1)
x495                                                2 	(obj:1)
x497                                                2 	(obj:1)
x501                                                2 	(obj:1)
x503                                                2 	(obj:1)
x505                                                1 	(obj:1)
x506                                                2 	(obj:1)
